NAME : f.tsp
COMMENT : subSetCreated
TYPE : TSP
DIMENSION :21
EDGE_WEIGHT_TYPE : EUC_2D
NODE_COORD_SECTION
198 49746.6667 6260.2778
700 49686.6667 6185.2778
308 49700.0 6116.6667
60 49658.3333 6137.2222
723 49629.7222 6139.1667
760 49611.3889 6136.1111
95 49620.5556 6073.3333
868 49525.0 6042.2222
939 49484.7222 6097.7778
39 49566.6667 6116.6667
600 49585.5556 6123.0556
817 49594.4444 6150.0
41 49600.0 6150.0
602 49600.0 6166.6667
749 49581.9444 6226.6667
92 49561.9444 6221.6667
903 50097.2222 5973.0556
272 49969.1667 5923.0556
703 49717.5 5950.0
794 49658.3333 6082.2222
883 49649.1667 6128.3333
